language ESSENCE' 1.0

letting nnodes be 60
letting nrings be 45
letting capacity be 45
letting demand_ExplicitR3_Explicit be
        [[1, 3; int(1..2)], [1, 5; int(1..2)], [1, 6; int(1..2)], [1, 7; int(1..2)], [1, 9; int(1..2)],
         [1, 19; int(1..2)], [1, 21; int(1..2)], [1, 23; int(1..2)], [1, 25; int(1..2)], [1, 34; int(1..2)],
         [1, 37; int(1..2)], [1, 39; int(1..2)], [1, 41; int(1..2)], [1, 44; int(1..2)], [1, 45; int(1..2)],
         [1, 46; int(1..2)], [1, 47; int(1..2)], [1, 50; int(1..2)], [1, 52; int(1..2)], [1, 54; int(1..2)],
         [1, 56; int(1..2)], [1, 57; int(1..2)], [1, 59; int(1..2)], [2, 3; int(1..2)], [2, 8; int(1..2)],
         [2, 10; int(1..2)], [2, 11; int(1..2)], [2, 14; int(1..2)], [2, 15; int(1..2)], [2, 16; int(1..2)],
         [2, 17; int(1..2)], [2, 23; int(1..2)], [2, 24; int(1..2)], [2, 25; int(1..2)], [2, 26; int(1..2)],
         [2, 28; int(1..2)], [2, 29; int(1..2)], [2, 30; int(1..2)], [2, 33; int(1..2)], [2, 34; int(1..2)],
         [2, 35; int(1..2)], [2, 36; int(1..2)], [2, 38; int(1..2)], [2, 40; int(1..2)], [2, 41; int(1..2)],
         [2, 46; int(1..2)], [2, 47; int(1..2)], [2, 54; int(1..2)], [2, 55; int(1..2)], [2, 57; int(1..2)],
         [2, 60; int(1..2)], [3, 6; int(1..2)], [3, 7; int(1..2)], [3, 8; int(1..2)], [3, 10; int(1..2)],
         [3, 11; int(1..2)], [3, 12; int(1..2)], [3, 17; int(1..2)], [3, 20; int(1..2)], [3, 21; int(1..2)],
         [3, 23; int(1..2)], [3, 24; int(1..2)], [3, 25; int(1..2)], [3, 26; int(1..2)], [3, 31; int(1..2)],
         [3, 32; int(1..2)], [3, 33; int(1..2)], [3, 35; int(1..2)], [3, 36; int(1..2)], [3, 37; int(1..2)],
         [3, 38; int(1..2)], [3, 39; int(1..2)], [3, 41; int(1..2)], [3, 42; int(1..2)], [3, 45; int(1..2)],
         [3, 48; int(1..2)], [3, 49; int(1..2)], [3, 50; int(1..2)], [3, 51; int(1..2)], [3, 52; int(1..2)],
         [3, 54; int(1..2)], [3, 55; int(1..2)], [3, 56; int(1..2)], [3, 59; int(1..2)], [3, 60; int(1..2)],
         [4, 7; int(1..2)], [4, 11; int(1..2)], [4, 12; int(1..2)], [4, 14; int(1..2)], [4, 17; int(1..2)],
         [4, 18; int(1..2)], [4, 20; int(1..2)], [4, 21; int(1..2)], [4, 22; int(1..2)], [4, 23; int(1..2)],
         [4, 24; int(1..2)], [4, 25; int(1..2)], [4, 28; int(1..2)], [4, 29; int(1..2)], [4, 30; int(1..2)],
         [4, 31; int(1..2)], [4, 33; int(1..2)], [4, 34; int(1..2)], [4, 37; int(1..2)], [4, 39; int(1..2)],
         [4, 42; int(1..2)], [4, 43; int(1..2)], [4, 46; int(1..2)], [4, 48; int(1..2)], [4, 52; int(1..2)],
         [4, 53; int(1..2)], [4, 54; int(1..2)], [4, 56; int(1..2)], [4, 57; int(1..2)], [4, 59; int(1..2)],
         [4, 60; int(1..2)], [5, 8; int(1..2)], [5, 11; int(1..2)], [5, 13; int(1..2)], [5, 15; int(1..2)],
         [5, 16; int(1..2)], [5, 18; int(1..2)], [5, 20; int(1..2)], [5, 22; int(1..2)], [5, 25; int(1..2)],
         [5, 27; int(1..2)], [5, 29; int(1..2)], [5, 31; int(1..2)], [5, 32; int(1..2)], [5, 33; int(1..2)],
         [5, 34; int(1..2)], [5, 38; int(1..2)], [5, 39; int(1..2)], [5, 41; int(1..2)], [5, 42; int(1..2)],
         [5, 44; int(1..2)], [5, 47; int(1..2)], [5, 50; int(1..2)], [5, 51; int(1..2)], [5, 52; int(1..2)],
         [5, 54; int(1..2)], [5, 56; int(1..2)], [5, 59; int(1..2)], [5, 60; int(1..2)], [6, 7; int(1..2)],
         [6, 8; int(1..2)], [6, 9; int(1..2)], [6, 12; int(1..2)], [6, 13; int(1..2)], [6, 17; int(1..2)],
         [6, 20; int(1..2)], [6, 21; int(1..2)], [6, 26; int(1..2)], [6, 27; int(1..2)], [6, 29; int(1..2)],
         [6, 32; int(1..2)], [6, 33; int(1..2)], [6, 34; int(1..2)], [6, 35; int(1..2)], [6, 36; int(1..2)],
         [6, 38; int(1..2)], [6, 39; int(1..2)], [6, 40; int(1..2)], [6, 42; int(1..2)], [6, 43; int(1..2)],
         [6, 47; int(1..2)], [6, 48; int(1..2)], [6, 50; int(1..2)], [6, 51; int(1..2)], [6, 53; int(1..2)],
         [6, 54; int(1..2)], [6, 56; int(1..2)], [6, 57; int(1..2)], [7, 10; int(1..2)], [7, 11; int(1..2)],
         [7, 12; int(1..2)], [7, 13; int(1..2)], [7, 14; int(1..2)], [7, 16; int(1..2)], [7, 18; int(1..2)],
         [7, 19; int(1..2)], [7, 20; int(1..2)], [7, 22; int(1..2)], [7, 23; int(1..2)], [7, 24; int(1..2)],
         [7, 28; int(1..2)], [7, 29; int(1..2)], [7, 30; int(1..2)], [7, 31; int(1..2)], [7, 32; int(1..2)],
         [7, 33; int(1..2)], [7, 34; int(1..2)], [7, 35; int(1..2)], [7, 38; int(1..2)], [7, 40; int(1..2)],
         [7, 41; int(1..2)], [7, 42; int(1..2)], [7, 44; int(1..2)], [7, 45; int(1..2)], [7, 47; int(1..2)],
         [7, 51; int(1..2)], [7, 52; int(1..2)], [7, 55; int(1..2)], [7, 56; int(1..2)], [7, 57; int(1..2)],
         [7, 59; int(1..2)], [8, 10; int(1..2)], [8, 16; int(1..2)], [8, 20; int(1..2)], [8, 26; int(1..2)],
         [8, 28; int(1..2)], [8, 29; int(1..2)], [8, 30; int(1..2)], [8, 31; int(1..2)], [8, 36; int(1..2)],
         [8, 37; int(1..2)], [8, 38; int(1..2)], [8, 39; int(1..2)], [8, 43; int(1..2)], [8, 45; int(1..2)],
         [8, 46; int(1..2)], [8, 47; int(1..2)], [8, 48; int(1..2)], [8, 51; int(1..2)], [8, 52; int(1..2)],
         [8, 58; int(1..2)], [8, 59; int(1..2)], [9, 11; int(1..2)], [9, 12; int(1..2)], [9, 15; int(1..2)],
         [9, 18; int(1..2)], [9, 19; int(1..2)], [9, 23; int(1..2)], [9, 25; int(1..2)], [9, 27; int(1..2)],
         [9, 29; int(1..2)], [9, 34; int(1..2)], [9, 36; int(1..2)], [9, 39; int(1..2)], [9, 40; int(1..2)],
         [9, 41; int(1..2)], [9, 42; int(1..2)], [9, 43; int(1..2)], [9, 44; int(1..2)], [9, 46; int(1..2)],
         [9, 47; int(1..2)], [9, 48; int(1..2)], [9, 50; int(1..2)], [9, 51; int(1..2)], [9, 52; int(1..2)],
         [9, 54; int(1..2)], [9, 56; int(1..2)], [9, 58; int(1..2)], [9, 60; int(1..2)], [10, 14; int(1..2)],
         [10, 16; int(1..2)], [10, 18; int(1..2)], [10, 22; int(1..2)], [10, 26; int(1..2)], [10, 32; int(1..2)],
         [10, 33; int(1..2)], [10, 34; int(1..2)], [10, 35; int(1..2)], [10, 36; int(1..2)], [10, 37; int(1..2)],
         [10, 39; int(1..2)], [10, 40; int(1..2)], [10, 42; int(1..2)], [10, 44; int(1..2)], [10, 46; int(1..2)],
         [10, 47; int(1..2)], [10, 49; int(1..2)], [10, 52; int(1..2)], [10, 55; int(1..2)], [10, 57; int(1..2)],
         [10, 58; int(1..2)], [11, 12; int(1..2)], [11, 17; int(1..2)], [11, 18; int(1..2)], [11, 21; int(1..2)],
         [11, 24; int(1..2)], [11, 30; int(1..2)], [11, 31; int(1..2)], [11, 33; int(1..2)], [11, 34; int(1..2)],
         [11, 36; int(1..2)], [11, 37; int(1..2)], [11, 38; int(1..2)], [11, 40; int(1..2)], [11, 42; int(1..2)],
         [11, 44; int(1..2)], [11, 45; int(1..2)], [11, 46; int(1..2)], [11, 49; int(1..2)], [11, 51; int(1..2)],
         [11, 52; int(1..2)], [11, 53; int(1..2)], [11, 58; int(1..2)], [11, 59; int(1..2)], [12, 16; int(1..2)],
         [12, 17; int(1..2)], [12, 19; int(1..2)], [12, 23; int(1..2)], [12, 25; int(1..2)], [12, 27; int(1..2)],
         [12, 29; int(1..2)], [12, 30; int(1..2)], [12, 31; int(1..2)], [12, 32; int(1..2)], [12, 34; int(1..2)],
         [12, 35; int(1..2)], [12, 36; int(1..2)], [12, 37; int(1..2)], [12, 39; int(1..2)], [12, 40; int(1..2)],
         [12, 43; int(1..2)], [12, 44; int(1..2)], [12, 45; int(1..2)], [12, 47; int(1..2)], [12, 50; int(1..2)],
         [12, 52; int(1..2)], [12, 53; int(1..2)], [12, 56; int(1..2)], [12, 57; int(1..2)], [13, 16; int(1..2)],
         [13, 17; int(1..2)], [13, 18; int(1..2)], [13, 19; int(1..2)], [13, 23; int(1..2)], [13, 24; int(1..2)],
         [13, 25; int(1..2)], [13, 26; int(1..2)], [13, 28; int(1..2)], [13, 29; int(1..2)], [13, 30; int(1..2)],
         [13, 31; int(1..2)], [13, 32; int(1..2)], [13, 33; int(1..2)], [13, 34; int(1..2)], [13, 36; int(1..2)],
         [13, 40; int(1..2)], [13, 41; int(1..2)], [13, 42; int(1..2)], [13, 45; int(1..2)], [13, 51; int(1..2)],
         [13, 52; int(1..2)], [13, 53; int(1..2)], [13, 57; int(1..2)], [13, 58; int(1..2)], [13, 60; int(1..2)],
         [14, 17; int(1..2)], [14, 21; int(1..2)], [14, 25; int(1..2)], [14, 27; int(1..2)], [14, 31; int(1..2)],
         [14, 33; int(1..2)], [14, 36; int(1..2)], [14, 38; int(1..2)], [14, 39; int(1..2)], [14, 42; int(1..2)],
         [14, 44; int(1..2)], [14, 45; int(1..2)], [14, 49; int(1..2)], [14, 52; int(1..2)], [14, 56; int(1..2)],
         [14, 57; int(1..2)], [14, 58; int(1..2)], [14, 59; int(1..2)], [14, 60; int(1..2)], [15, 17; int(1..2)],
         [15, 18; int(1..2)], [15, 22; int(1..2)], [15, 26; int(1..2)], [15, 27; int(1..2)], [15, 30; int(1..2)],
         [15, 31; int(1..2)], [15, 32; int(1..2)], [15, 34; int(1..2)], [15, 39; int(1..2)], [15, 41; int(1..2)],
         [15, 43; int(1..2)], [15, 44; int(1..2)], [15, 45; int(1..2)], [15, 46; int(1..2)], [15, 47; int(1..2)],
         [15, 48; int(1..2)], [15, 49; int(1..2)], [15, 53; int(1..2)], [15, 54; int(1..2)], [15, 55; int(1..2)],
         [15, 56; int(1..2)], [15, 57; int(1..2)], [15, 59; int(1..2)], [16, 18; int(1..2)], [16, 19; int(1..2)],
         [16, 20; int(1..2)], [16, 22; int(1..2)], [16, 24; int(1..2)], [16, 26; int(1..2)], [16, 28; int(1..2)],
         [16, 29; int(1..2)], [16, 30; int(1..2)], [16, 31; int(1..2)], [16, 32; int(1..2)], [16, 33; int(1..2)],
         [16, 36; int(1..2)], [16, 37; int(1..2)], [16, 39; int(1..2)], [16, 40; int(1..2)], [16, 43; int(1..2)],
         [16, 45; int(1..2)], [16, 47; int(1..2)], [16, 49; int(1..2)], [16, 50; int(1..2)], [16, 51; int(1..2)],
         [16, 55; int(1..2)], [16, 60; int(1..2)], [17, 18; int(1..2)], [17, 19; int(1..2)], [17, 22; int(1..2)],
         [17, 24; int(1..2)], [17, 25; int(1..2)], [17, 26; int(1..2)], [17, 27; int(1..2)], [17, 28; int(1..2)],
         [17, 33; int(1..2)], [17, 34; int(1..2)], [17, 35; int(1..2)], [17, 39; int(1..2)], [17, 44; int(1..2)],
         [17, 45; int(1..2)], [17, 46; int(1..2)], [17, 49; int(1..2)], [17, 51; int(1..2)], [17, 52; int(1..2)],
         [17, 53; int(1..2)], [17, 54; int(1..2)], [17, 57; int(1..2)], [17, 58; int(1..2)], [18, 20; int(1..2)],
         [18, 22; int(1..2)], [18, 23; int(1..2)], [18, 25; int(1..2)], [18, 26; int(1..2)], [18, 28; int(1..2)],
         [18, 30; int(1..2)], [18, 32; int(1..2)], [18, 33; int(1..2)], [18, 38; int(1..2)], [18, 40; int(1..2)],
         [18, 41; int(1..2)], [18, 44; int(1..2)], [18, 46; int(1..2)], [18, 47; int(1..2)], [18, 50; int(1..2)],
         [18, 52; int(1..2)], [18, 53; int(1..2)], [18, 57; int(1..2)], [18, 58; int(1..2)], [18, 59; int(1..2)],
         [18, 60; int(1..2)], [19, 23; int(1..2)], [19, 24; int(1..2)], [19, 26; int(1..2)], [19, 30; int(1..2)],
         [19, 31; int(1..2)], [19, 33; int(1..2)], [19, 34; int(1..2)], [19, 35; int(1..2)], [19, 36; int(1..2)],
         [19, 37; int(1..2)], [19, 38; int(1..2)], [19, 41; int(1..2)], [19, 45; int(1..2)], [19, 47; int(1..2)],
         [19, 50; int(1..2)], [19, 51; int(1..2)], [19, 52; int(1..2)], [19, 53; int(1..2)], [19, 54; int(1..2)],
         [19, 55; int(1..2)], [19, 56; int(1..2)], [19, 57; int(1..2)], [19, 60; int(1..2)], [20, 23; int(1..2)],
         [20, 29; int(1..2)], [20, 30; int(1..2)], [20, 31; int(1..2)], [20, 34; int(1..2)], [20, 38; int(1..2)],
         [20, 42; int(1..2)], [20, 48; int(1..2)], [20, 51; int(1..2)], [20, 52; int(1..2)], [20, 54; int(1..2)],
         [20, 56; int(1..2)], [20, 57; int(1..2)], [20, 59; int(1..2)], [20, 60; int(1..2)], [21, 23; int(1..2)],
         [21, 25; int(1..2)], [21, 26; int(1..2)], [21, 29; int(1..2)], [21, 31; int(1..2)], [21, 33; int(1..2)],
         [21, 34; int(1..2)], [21, 36; int(1..2)], [21, 38; int(1..2)], [21, 43; int(1..2)], [21, 45; int(1..2)],
         [21, 52; int(1..2)], [21, 53; int(1..2)], [21, 54; int(1..2)], [21, 55; int(1..2)], [21, 59; int(1..2)],
         [21, 60; int(1..2)], [22, 23; int(1..2)], [22, 26; int(1..2)], [22, 27; int(1..2)], [22, 28; int(1..2)],
         [22, 31; int(1..2)], [22, 32; int(1..2)], [22, 33; int(1..2)], [22, 36; int(1..2)], [22, 38; int(1..2)],
         [22, 40; int(1..2)], [22, 46; int(1..2)], [22, 49; int(1..2)], [22, 50; int(1..2)], [22, 51; int(1..2)],
         [22, 53; int(1..2)], [22, 54; int(1..2)], [22, 55; int(1..2)], [22, 58; int(1..2)], [23, 28; int(1..2)],
         [23, 32; int(1..2)], [23, 34; int(1..2)], [23, 37; int(1..2)], [23, 41; int(1..2)], [23, 45; int(1..2)],
         [23, 46; int(1..2)], [23, 49; int(1..2)], [23, 50; int(1..2)], [23, 53; int(1..2)], [23, 58; int(1..2)],
         [23, 59; int(1..2)], [24, 25; int(1..2)], [24, 30; int(1..2)], [24, 31; int(1..2)], [24, 32; int(1..2)],
         [24, 33; int(1..2)], [24, 34; int(1..2)], [24, 35; int(1..2)], [24, 38; int(1..2)], [24, 39; int(1..2)],
         [24, 40; int(1..2)], [24, 41; int(1..2)], [24, 43; int(1..2)], [24, 44; int(1..2)], [24, 48; int(1..2)],
         [24, 49; int(1..2)], [24, 50; int(1..2)], [24, 53; int(1..2)], [24, 54; int(1..2)], [24, 55; int(1..2)],
         [24, 57; int(1..2)], [24, 58; int(1..2)], [24, 59; int(1..2)], [24, 60; int(1..2)], [25, 27; int(1..2)],
         [25, 28; int(1..2)], [25, 29; int(1..2)], [25, 30; int(1..2)], [25, 38; int(1..2)], [25, 39; int(1..2)],
         [25, 40; int(1..2)], [25, 41; int(1..2)], [25, 42; int(1..2)], [25, 43; int(1..2)], [25, 46; int(1..2)],
         [25, 47; int(1..2)], [25, 49; int(1..2)], [25, 53; int(1..2)], [25, 56; int(1..2)], [25, 57; int(1..2)],
         [26, 28; int(1..2)], [26, 30; int(1..2)], [26, 31; int(1..2)], [26, 32; int(1..2)], [26, 33; int(1..2)],
         [26, 34; int(1..2)], [26, 35; int(1..2)], [26, 37; int(1..2)], [26, 40; int(1..2)], [26, 41; int(1..2)],
         [26, 42; int(1..2)], [26, 44; int(1..2)], [26, 45; int(1..2)], [26, 49; int(1..2)], [26, 50; int(1..2)],
         [26, 52; int(1..2)], [26, 53; int(1..2)], [26, 54; int(1..2)], [26, 55; int(1..2)], [26, 58; int(1..2)],
         [26, 59; int(1..2)], [26, 60; int(1..2)], [27, 29; int(1..2)], [27, 30; int(1..2)], [27, 31; int(1..2)],
         [27, 32; int(1..2)], [27, 33; int(1..2)], [27, 34; int(1..2)], [27, 35; int(1..2)], [27, 36; int(1..2)],
         [27, 37; int(1..2)], [27, 38; int(1..2)], [27, 39; int(1..2)], [27, 41; int(1..2)], [27, 42; int(1..2)],
         [27, 44; int(1..2)], [27, 45; int(1..2)], [27, 47; int(1..2)], [27, 50; int(1..2)], [27, 51; int(1..2)],
         [27, 53; int(1..2)], [27, 56; int(1..2)], [27, 58; int(1..2)], [28, 29; int(1..2)], [28, 33; int(1..2)],
         [28, 34; int(1..2)], [28, 40; int(1..2)], [28, 42; int(1..2)], [28, 44; int(1..2)], [28, 45; int(1..2)],
         [28, 46; int(1..2)], [28, 48; int(1..2)], [28, 49; int(1..2)], [28, 51; int(1..2)], [28, 54; int(1..2)],
         [28, 57; int(1..2)], [28, 58; int(1..2)], [28, 59; int(1..2)], [29, 35; int(1..2)], [29, 37; int(1..2)],
         [29, 42; int(1..2)], [29, 44; int(1..2)], [29, 45; int(1..2)], [29, 48; int(1..2)], [29, 49; int(1..2)],
         [29, 51; int(1..2)], [29, 53; int(1..2)], [29, 54; int(1..2)], [29, 55; int(1..2)], [29, 56; int(1..2)],
         [29, 57; int(1..2)], [30, 32; int(1..2)], [30, 33; int(1..2)], [30, 34; int(1..2)], [30, 35; int(1..2)],
         [30, 41; int(1..2)], [30, 43; int(1..2)], [30, 44; int(1..2)], [30, 52; int(1..2)], [30, 54; int(1..2)],
         [30, 55; int(1..2)], [30, 56; int(1..2)], [30, 57; int(1..2)], [30, 60; int(1..2)], [31, 32; int(1..2)],
         [31, 35; int(1..2)], [31, 37; int(1..2)], [31, 40; int(1..2)], [31, 41; int(1..2)], [31, 42; int(1..2)],
         [31, 43; int(1..2)], [31, 44; int(1..2)], [31, 45; int(1..2)], [31, 47; int(1..2)], [31, 50; int(1..2)],
         [31, 51; int(1..2)], [31, 53; int(1..2)], [31, 54; int(1..2)], [31, 58; int(1..2)], [32, 33; int(1..2)],
         [32, 37; int(1..2)], [32, 41; int(1..2)], [32, 42; int(1..2)], [32, 44; int(1..2)], [32, 47; int(1..2)],
         [32, 48; int(1..2)], [32, 49; int(1..2)], [32, 51; int(1..2)], [32, 52; int(1..2)], [32, 53; int(1..2)],
         [32, 55; int(1..2)], [32, 57; int(1..2)], [32, 58; int(1..2)], [32, 60; int(1..2)], [33, 35; int(1..2)],
         [33, 37; int(1..2)], [33, 38; int(1..2)], [33, 41; int(1..2)], [33, 43; int(1..2)], [33, 44; int(1..2)],
         [33, 45; int(1..2)], [33, 46; int(1..2)], [33, 48; int(1..2)], [33, 49; int(1..2)], [33, 50; int(1..2)],
         [33, 51; int(1..2)], [33, 56; int(1..2)], [33, 57; int(1..2)], [33, 58; int(1..2)], [34, 35; int(1..2)],
         [34, 36; int(1..2)], [34, 38; int(1..2)], [34, 39; int(1..2)], [34, 40; int(1..2)], [34, 43; int(1..2)],
         [34, 45; int(1..2)], [34, 46; int(1..2)], [34, 48; int(1..2)], [34, 49; int(1..2)], [34, 50; int(1..2)],
         [34, 51; int(1..2)], [34, 53; int(1..2)], [34, 54; int(1..2)], [34, 56; int(1..2)], [34, 57; int(1..2)],
         [34, 59; int(1..2)], [35, 39; int(1..2)], [35, 41; int(1..2)], [35, 42; int(1..2)], [35, 45; int(1..2)],
         [35, 46; int(1..2)], [35, 50; int(1..2)], [35, 53; int(1..2)], [35, 54; int(1..2)], [35, 56; int(1..2)],
         [35, 59; int(1..2)], [36, 37; int(1..2)], [36, 38; int(1..2)], [36, 41; int(1..2)], [36, 42; int(1..2)],
         [36, 43; int(1..2)], [36, 46; int(1..2)], [36, 47; int(1..2)], [36, 50; int(1..2)], [36, 51; int(1..2)],
         [36, 53; int(1..2)], [36, 54; int(1..2)], [36, 55; int(1..2)], [36, 56; int(1..2)], [36, 57; int(1..2)],
         [36, 58; int(1..2)], [36, 60; int(1..2)], [37, 38; int(1..2)], [37, 39; int(1..2)], [37, 40; int(1..2)],
         [37, 41; int(1..2)], [37, 42; int(1..2)], [37, 47; int(1..2)], [37, 58; int(1..2)], [37, 60; int(1..2)],
         [38, 40; int(1..2)], [38, 43; int(1..2)], [38, 45; int(1..2)], [38, 50; int(1..2)], [38, 51; int(1..2)],
         [38, 52; int(1..2)], [38, 53; int(1..2)], [38, 55; int(1..2)], [38, 57; int(1..2)], [38, 58; int(1..2)],
         [38, 59; int(1..2)], [39, 40; int(1..2)], [39, 43; int(1..2)], [39, 44; int(1..2)], [39, 49; int(1..2)],
         [39, 50; int(1..2)], [39, 51; int(1..2)], [39, 54; int(1..2)], [39, 58; int(1..2)], [39, 60; int(1..2)],
         [40, 41; int(1..2)], [40, 46; int(1..2)], [40, 49; int(1..2)], [40, 50; int(1..2)], [40, 52; int(1..2)],
         [40, 53; int(1..2)], [40, 57; int(1..2)], [41, 43; int(1..2)], [41, 44; int(1..2)], [41, 45; int(1..2)],
         [41, 47; int(1..2)], [41, 48; int(1..2)], [41, 51; int(1..2)], [41, 52; int(1..2)], [41, 53; int(1..2)],
         [41, 54; int(1..2)], [41, 56; int(1..2)], [42, 44; int(1..2)], [42, 46; int(1..2)], [42, 48; int(1..2)],
         [42, 50; int(1..2)], [42, 51; int(1..2)], [42, 52; int(1..2)], [42, 53; int(1..2)], [42, 56; int(1..2)],
         [42, 58; int(1..2)], [42, 59; int(1..2)], [42, 60; int(1..2)], [43, 46; int(1..2)], [43, 48; int(1..2)],
         [43, 51; int(1..2)], [43, 53; int(1..2)], [43, 56; int(1..2)], [44, 46; int(1..2)], [44, 47; int(1..2)],
         [44, 48; int(1..2)], [44, 51; int(1..2)], [44, 52; int(1..2)], [44, 53; int(1..2)], [44, 54; int(1..2)],
         [44, 56; int(1..2)], [44, 57; int(1..2)], [44, 59; int(1..2)], [44, 60; int(1..2)], [45, 46; int(1..2)],
         [45, 47; int(1..2)], [45, 48; int(1..2)], [45, 52; int(1..2)], [45, 53; int(1..2)], [45, 55; int(1..2)],
         [45, 57; int(1..2)], [45, 59; int(1..2)], [46, 47; int(1..2)], [46, 48; int(1..2)], [46, 50; int(1..2)],
         [46, 51; int(1..2)], [46, 52; int(1..2)], [46, 53; int(1..2)], [46, 55; int(1..2)], [46, 60; int(1..2)],
         [47, 49; int(1..2)], [47, 55; int(1..2)], [47, 56; int(1..2)], [47, 57; int(1..2)], [47, 60; int(1..2)],
         [48, 49; int(1..2)], [48, 52; int(1..2)], [48, 54; int(1..2)], [48, 55; int(1..2)], [48, 56; int(1..2)],
         [48, 57; int(1..2)], [48, 58; int(1..2)], [49, 54; int(1..2)], [49, 55; int(1..2)], [49, 57; int(1..2)],
         [49, 59; int(1..2)], [50, 52; int(1..2)], [50, 54; int(1..2)], [50, 55; int(1..2)], [50, 56; int(1..2)],
         [50, 57; int(1..2)], [50, 58; int(1..2)], [51, 52; int(1..2)], [51, 53; int(1..2)], [51, 54; int(1..2)],
         [51, 57; int(1..2)], [51, 60; int(1..2)], [52, 55; int(1..2)], [52, 57; int(1..2)], [52, 58; int(1..2)],
         [52, 60; int(1..2)], [53, 55; int(1..2)], [53, 56; int(1..2)], [53, 60; int(1..2)], [54, 55; int(1..2)],
         [54, 56; int(1..2)], [54, 58; int(1..2)], [54, 59; int(1..2)], [55, 59; int(1..2)], [56, 57; int(1..2)],
         [56, 58; int(1..2)], [57, 58; int(1..2)], [58, 59; int(1..2)], [59, 60; int(1..2)];
             int(1..889)]
$ Visualisation for demand_ExplicitR3_Explicit
$  1  3
$  1  5
$  1  6
$  1  7
$  1  9
$  1 19
$  1 21
$  1 23
$  1 25
$  1 34
$  1 37
$  1 39
$  1 41
$  1 44
$  1 45
$  1 46
$  1 47
$  1 50
$  1 52
$  1 54
$  1 56
$  1 57
$  1 59
$  2  3
$  2  8
$  2 10
$  2 11
$  2 14
$  2 15
$  2 16
$  2 17
$  2 23
$  2 24
$  2 25
$  2 26
$  2 28
$  2 29
$  2 30
$  2 33
$  2 34
$  2 35
$  2 36
$  2 38
$  2 40
$  2 41
$  2 46
$  2 47
$  2 54
$  2 55
$  2 57
$  2 60
$  3  6
$  3  7
$  3  8
$  3 10
$  3 11
$  3 12
$  3 17
$  3 20
$  3 21
$  3 23
$  3 24
$  3 25
$  3 26
$  3 31
$  3 32
$  3 33
$  3 35
$  3 36
$  3 37
$  3 38
$  3 39
$  3 41
$  3 42
$  3 45
$  3 48
$  3 49
$  3 50
$  3 51
$  3 52
$  3 54
$  3 55
$  3 56
$  3 59
$  3 60
$  4  7
$  4 11
$  4 12
$  4 14
$  4 17
$  4 18
$  4 20
$  4 21
$  4 22
$  4 23
$  4 24
$  4 25
$  4 28
$  4 29
$  4 30
$  4 31
$  4 33
$  4 34
$  4 37
$  4 39
$  4 42
$  4 43
$  4 46
$  4 48
$  4 52
$  4 53
$  4 54
$  4 56
$  4 57
$  4 59
$  4 60
$  5  8
$  5 11
$  5 13
$  5 15
$  5 16
$  5 18
$  5 20
$  5 22
$  5 25
$  5 27
$  5 29
$  5 31
$  5 32
$  5 33
$  5 34
$  5 38
$  5 39
$  5 41
$  5 42
$  5 44
$  5 47
$  5 50
$  5 51
$  5 52
$  5 54
$  5 56
$  5 59
$  5 60
$  6  7
$  6  8
$  6  9
$  6 12
$  6 13
$  6 17
$  6 20
$  6 21
$  6 26
$  6 27
$  6 29
$  6 32
$  6 33
$  6 34
$  6 35
$  6 36
$  6 38
$  6 39
$  6 40
$  6 42
$  6 43
$  6 47
$  6 48
$  6 50
$  6 51
$  6 53
$  6 54
$  6 56
$  6 57
$  7 10
$  7 11
$  7 12
$  7 13
$  7 14
$  7 16
$  7 18
$  7 19
$  7 20
$  7 22
$  7 23
$  7 24
$  7 28
$  7 29
$  7 30
$  7 31
$  7 32
$  7 33
$  7 34
$  7 35
$  7 38
$  7 40
$  7 41
$  7 42
$  7 44
$  7 45
$  7 47
$  7 51
$  7 52
$  7 55
$  7 56
$  7 57
$  7 59
$  8 10
$  8 16
$  8 20
$  8 26
$  8 28
$  8 29
$  8 30
$  8 31
$  8 36
$  8 37
$  8 38
$  8 39
$  8 43
$  8 45
$  8 46
$  8 47
$  8 48
$  8 51
$  8 52
$  8 58
$  8 59
$  9 11
$  9 12
$  9 15
$  9 18
$  9 19
$  9 23
$  9 25
$  9 27
$  9 29
$  9 34
$  9 36
$  9 39
$  9 40
$  9 41
$  9 42
$  9 43
$  9 44
$  9 46
$  9 47
$  9 48
$  9 50
$  9 51
$  9 52
$  9 54
$  9 56
$  9 58
$  9 60
$ 10 14
$ 10 16
$ 10 18
$ 10 22
$ 10 26
$ 10 32
$ 10 33
$ 10 34
$ 10 35
$ 10 36
$ 10 37
$ 10 39
$ 10 40
$ 10 42
$ 10 44
$ 10 46
$ 10 47
$ 10 49
$ 10 52
$ 10 55
$ 10 57
$ 10 58
$ 11 12
$ 11 17
$ 11 18
$ 11 21
$ 11 24
$ 11 30
$ 11 31
$ 11 33
$ 11 34
$ 11 36
$ 11 37
$ 11 38
$ 11 40
$ 11 42
$ 11 44
$ 11 45
$ 11 46
$ 11 49
$ 11 51
$ 11 52
$ 11 53
$ 11 58
$ 11 59
$ 12 16
$ 12 17
$ 12 19
$ 12 23
$ 12 25
$ 12 27
$ 12 29
$ 12 30
$ 12 31
$ 12 32
$ 12 34
$ 12 35
$ 12 36
$ 12 37
$ 12 39
$ 12 40
$ 12 43
$ 12 44
$ 12 45
$ 12 47
$ 12 50
$ 12 52
$ 12 53
$ 12 56
$ 12 57
$ 13 16
$ 13 17
$ 13 18
$ 13 19
$ 13 23
$ 13 24
$ 13 25
$ 13 26
$ 13 28
$ 13 29
$ 13 30
$ 13 31
$ 13 32
$ 13 33
$ 13 34
$ 13 36
$ 13 40
$ 13 41
$ 13 42
$ 13 45
$ 13 51
$ 13 52
$ 13 53
$ 13 57
$ 13 58
$ 13 60
$ 14 17
$ 14 21
$ 14 25
$ 14 27
$ 14 31
$ 14 33
$ 14 36
$ 14 38
$ 14 39
$ 14 42
$ 14 44
$ 14 45
$ 14 49
$ 14 52
$ 14 56
$ 14 57
$ 14 58
$ 14 59
$ 14 60
$ 15 17
$ 15 18
$ 15 22
$ 15 26
$ 15 27
$ 15 30
$ 15 31
$ 15 32
$ 15 34
$ 15 39
$ 15 41
$ 15 43
$ 15 44
$ 15 45
$ 15 46
$ 15 47
$ 15 48
$ 15 49
$ 15 53
$ 15 54
$ 15 55
$ 15 56
$ 15 57
$ 15 59
$ 16 18
$ 16 19
$ 16 20
$ 16 22
$ 16 24
$ 16 26
$ 16 28
$ 16 29
$ 16 30
$ 16 31
$ 16 32
$ 16 33
$ 16 36
$ 16 37
$ 16 39
$ 16 40
$ 16 43
$ 16 45
$ 16 47
$ 16 49
$ 16 50
$ 16 51
$ 16 55
$ 16 60
$ 17 18
$ 17 19
$ 17 22
$ 17 24
$ 17 25
$ 17 26
$ 17 27
$ 17 28
$ 17 33
$ 17 34
$ 17 35
$ 17 39
$ 17 44
$ 17 45
$ 17 46
$ 17 49
$ 17 51
$ 17 52
$ 17 53
$ 17 54
$ 17 57
$ 17 58
$ 18 20
$ 18 22
$ 18 23
$ 18 25
$ 18 26
$ 18 28
$ 18 30
$ 18 32
$ 18 33
$ 18 38
$ 18 40
$ 18 41
$ 18 44
$ 18 46
$ 18 47
$ 18 50
$ 18 52
$ 18 53
$ 18 57
$ 18 58
$ 18 59
$ 18 60
$ 19 23
$ 19 24
$ 19 26
$ 19 30
$ 19 31
$ 19 33
$ 19 34
$ 19 35
$ 19 36
$ 19 37
$ 19 38
$ 19 41
$ 19 45
$ 19 47
$ 19 50
$ 19 51
$ 19 52
$ 19 53
$ 19 54
$ 19 55
$ 19 56
$ 19 57
$ 19 60
$ 20 23
$ 20 29
$ 20 30
$ 20 31
$ 20 34
$ 20 38
$ 20 42
$ 20 48
$ 20 51
$ 20 52
$ 20 54
$ 20 56
$ 20 57
$ 20 59
$ 20 60
$ 21 23
$ 21 25
$ 21 26
$ 21 29
$ 21 31
$ 21 33
$ 21 34
$ 21 36
$ 21 38
$ 21 43
$ 21 45
$ 21 52
$ 21 53
$ 21 54
$ 21 55
$ 21 59
$ 21 60
$ 22 23
$ 22 26
$ 22 27
$ 22 28
$ 22 31
$ 22 32
$ 22 33
$ 22 36
$ 22 38
$ 22 40
$ 22 46
$ 22 49
$ 22 50
$ 22 51
$ 22 53
$ 22 54
$ 22 55
$ 22 58
$ 23 28
$ 23 32
$ 23 34
$ 23 37
$ 23 41
$ 23 45
$ 23 46
$ 23 49
$ 23 50
$ 23 53
$ 23 58
$ 23 59
$ 24 25
$ 24 30
$ 24 31
$ 24 32
$ 24 33
$ 24 34
$ 24 35
$ 24 38
$ 24 39
$ 24 40
$ 24 41
$ 24 43
$ 24 44
$ 24 48
$ 24 49
$ 24 50
$ 24 53
$ 24 54
$ 24 55
$ 24 57
$ 24 58
$ 24 59
$ 24 60
$ 25 27
$ 25 28
$ 25 29
$ 25 30
$ 25 38
$ 25 39
$ 25 40
$ 25 41
$ 25 42
$ 25 43
$ 25 46
$ 25 47
$ 25 49
$ 25 53
$ 25 56
$ 25 57
$ 26 28
$ 26 30
$ 26 31
$ 26 32
$ 26 33
$ 26 34
$ 26 35
$ 26 37
$ 26 40
$ 26 41
$ 26 42
$ 26 44
$ 26 45
$ 26 49
$ 26 50
$ 26 52
$ 26 53
$ 26 54
$ 26 55
$ 26 58
$ 26 59
$ 26 60
$ 27 29
$ 27 30
$ 27 31
$ 27 32
$ 27 33
$ 27 34
$ 27 35
$ 27 36
$ 27 37
$ 27 38
$ 27 39
$ 27 41
$ 27 42
$ 27 44
$ 27 45
$ 27 47
$ 27 50
$ 27 51
$ 27 53
$ 27 56
$ 27 58
$ 28 29
$ 28 33
$ 28 34
$ 28 40
$ 28 42
$ 28 44
$ 28 45
$ 28 46
$ 28 48
$ 28 49
$ 28 51
$ 28 54
$ 28 57
$ 28 58
$ 28 59
$ 29 35
$ 29 37
$ 29 42
$ 29 44
$ 29 45
$ 29 48
$ 29 49
$ 29 51
$ 29 53
$ 29 54
$ 29 55
$ 29 56
$ 29 57
$ 30 32
$ 30 33
$ 30 34
$ 30 35
$ 30 41
$ 30 43
$ 30 44
$ 30 52
$ 30 54
$ 30 55
$ 30 56
$ 30 57
$ 30 60
$ 31 32
$ 31 35
$ 31 37
$ 31 40
$ 31 41
$ 31 42
$ 31 43
$ 31 44
$ 31 45
$ 31 47
$ 31 50
$ 31 51
$ 31 53
$ 31 54
$ 31 58
$ 32 33
$ 32 37
$ 32 41
$ 32 42
$ 32 44
$ 32 47
$ 32 48
$ 32 49
$ 32 51
$ 32 52
$ 32 53
$ 32 55
$ 32 57
$ 32 58
$ 32 60
$ 33 35
$ 33 37
$ 33 38
$ 33 41
$ 33 43
$ 33 44
$ 33 45
$ 33 46
$ 33 48
$ 33 49
$ 33 50
$ 33 51
$ 33 56
$ 33 57
$ 33 58
$ 34 35
$ 34 36
$ 34 38
$ 34 39
$ 34 40
$ 34 43
$ 34 45
$ 34 46
$ 34 48
$ 34 49
$ 34 50
$ 34 51
$ 34 53
$ 34 54
$ 34 56
$ 34 57
$ 34 59
$ 35 39
$ 35 41
$ 35 42
$ 35 45
$ 35 46
$ 35 50
$ 35 53
$ 35 54
$ 35 56
$ 35 59
$ 36 37
$ 36 38
$ 36 41
$ 36 42
$ 36 43
$ 36 46
$ 36 47
$ 36 50
$ 36 51
$ 36 53
$ 36 54
$ 36 55
$ 36 56
$ 36 57
$ 36 58
$ 36 60
$ 37 38
$ 37 39
$ 37 40
$ 37 41
$ 37 42
$ 37 47
$ 37 58
$ 37 60
$ 38 40
$ 38 43
$ 38 45
$ 38 50
$ 38 51
$ 38 52
$ 38 53
$ 38 55
$ 38 57
$ 38 58
$ 38 59
$ 39 40
$ 39 43
$ 39 44
$ 39 49
$ 39 50
$ 39 51
$ 39 54
$ 39 58
$ 39 60
$ 40 41
$ 40 46
$ 40 49
$ 40 50
$ 40 52
$ 40 53
$ 40 57
$ 41 43
$ 41 44
$ 41 45
$ 41 47
$ 41 48
$ 41 51
$ 41 52
$ 41 53
$ 41 54
$ 41 56
$ 42 44
$ 42 46
$ 42 48
$ 42 50
$ 42 51
$ 42 52
$ 42 53
$ 42 56
$ 42 58
$ 42 59
$ 42 60
$ 43 46
$ 43 48
$ 43 51
$ 43 53
$ 43 56
$ 44 46
$ 44 47
$ 44 48
$ 44 51
$ 44 52
$ 44 53
$ 44 54
$ 44 56
$ 44 57
$ 44 59
$ 44 60
$ 45 46
$ 45 47
$ 45 48
$ 45 52
$ 45 53
$ 45 55
$ 45 57
$ 45 59
$ 46 47
$ 46 48
$ 46 50
$ 46 51
$ 46 52
$ 46 53
$ 46 55
$ 46 60
$ 47 49
$ 47 55
$ 47 56
$ 47 57
$ 47 60
$ 48 49
$ 48 52
$ 48 54
$ 48 55
$ 48 56
$ 48 57
$ 48 58
$ 49 54
$ 49 55
$ 49 57
$ 49 59
$ 50 52
$ 50 54
$ 50 55
$ 50 56
$ 50 57
$ 50 58
$ 51 52
$ 51 53
$ 51 54
$ 51 57
$ 51 60
$ 52 55
$ 52 57
$ 52 58
$ 52 60
$ 53 55
$ 53 56
$ 53 60
$ 54 55
$ 54 56
$ 54 58
$ 54 59
$ 55 59
$ 56 57
$ 56 58
$ 57 58
$ 58 59
$ 59 60

letting fin1 be 889
